STUDENTS = {Philip,Colleen,Meredith,Bernard,Arlene,Herman,Elaine,Andrea,Dwight,Vanessa,Marcia,Matthew,Wesley,Esther,Glenn,Rita,Courtney,Kathy,Jacqueline,Claire,Frank,Clara,Norma,Tina,Lucille,Kristine,Donald,Nina,Raymond,Sandra,Sue,Kathleen,Irene,Allen,Beverly,Marian,Carl,Michael,Cecil,Eddie,Lindsay,Jan,Nancy,Leo,Yvonne,Julia,Jean,Tiffany,Brandon,Stephanie};
T = 50;
LWB = 3;
UPB = 5;
apart = [|Philip,Norma|Colleen,Donald|Colleen,Irene|Colleen,Eddie|Colleen,Brandon|Meredith,Irene|Arlene,Jacqueline|Arlene,Leo|Herman,Vanessa|Herman,Allen|Elaine,Leo|Elaine,Julia|Andrea,Dwight|Andrea,Jacqueline|Dwight,Sandra|Dwight,Lindsay|Vanessa,Kristine|Vanessa,Lindsay|Marcia,Eddie|Matthew,Irene|Wesley,Clara|Wesley,Norma|Esther,Rita|Esther,Nina|Esther,Eddie|Glenn,Jean|Rita,Nina|Rita,Sandra|Rita,Carl|Rita,Leo|Kathy,Raymond|Kathy,Carl|Kathy,Eddie|Kathy,Yvonne|Jacqueline,Nina|Jacqueline,Raymond|Jacqueline,Beverly|Jacqueline,Yvonne|Claire,Leo|Frank,Brandon|Clara,Lucille|Clara,Lindsay|Clara,Stephanie|Norma,Brandon|Lucille,Lindsay|Kristine,Tiffany|Donald,Allen|Nina,Marian|Nina,Cecil|Nina,Yvonne|Raymond,Marian|Sandra,Tiffany|Allen,Michael|Beverly,Carl|Beverly,Nancy|Beverly,Tiffany|Carl,Leo|Carl,Tiffany|Eddie,Lindsay|Eddie,Tiffany|Leo,Stephanie|Yvonne,Tiffany|];
together = [|Philip,Meredith|Philip,Allen|Meredith,Jacqueline|Meredith,Allen|Meredith,Beverly|Meredith,Carl|Bernard,Vanessa|Bernard,Nina|Arlene,Wesley|Arlene,Rita|Arlene,Donald|Arlene,Michael|Arlene,Lindsay|Herman,Raymond|Elaine,Courtney|Elaine,Lucille|Elaine,Kathleen|Elaine,Irene|Elaine,Eddie|Marcia,Matthew|Marcia,Donald|Matthew,Marian|Matthew,Brandon|Wesley,Courtney|Wesley,Claire|Wesley,Irene|Wesley,Carl|Esther,Lindsay|Rita,Clara|Rita,Irene|Rita,Jan|Rita,Jean|Courtney,Lindsay|Kathy,Norma|Kathy,Sandra|Kathy,Jean|Clara,Beverly|Norma,Lucille|Norma,Nancy|Nina,Raymond|Nina,Beverly|Raymond,Nancy|Raymond,Leo|Raymond,Brandon|Sandra,Jan|Sue,Eddie|Kathleen,Jan|Beverly,Cecil|Marian,Nancy|Marian,Jean|Cecil,Eddie|Cecil,Brandon|Julia,Jean|];
